NAME : tsp25_5.171.tour
COMMENT : Length = 171
COMMENT : Found by LKH [Keld Helsgaun]
TYPE : TOUR
DIMENSION : 25
TOUR_SECTION
1
6
5
21
10
11
14
7
20
22
4
15
3
25
8
18
19
16
9
23
12
2
13
17
24
-1
EOF
